p cnf 15 38
-15 -13 -11 0
15 13 10 0
15 -13 3 0
15 13 2 0
15 -10 -1 0
15 5 3 0
-15 3 -2 0
14 -13 -5 0
-14 12 3 0
-14 -11 2 0
14 10 -5 0
14 8 2 0
-14 -6 -5 0
-13 10 -3 0
13 -10 -2 0
-13 -8 2 0
-13 -3 -1 0
12 11 10 0
12 -11 -3 0
-12 -11 -1 0
12 -11 -1 0
12 -8 1 0
12 -7 3 0
12 -4 3 0
-11 8 -6 0
11 6 -5 0
-11 5 -2 0
10 -9 4 0
-10 -4 2 0
10 -3 1 0
-9 -8 7 0
-9 -8 3 0
-9 -6 -4 0
9 3 1 0
8 7 -3 0
7 5 4 0
-7 2 -1 0
4 3 1 0
